! UKS B3LYP ZORA-def2-TZVP def2/J RIJCOSX TightSCF ZORA
%tddft
doquad true  
nroots 60
maxdim 10
end
* xyz 2 2
 C                 -0.79747600   -4.20488000   -0.10253400
 N                  0.39435800   -4.12945700   -0.80812900
 C                 -1.05943000   -2.90437400    0.27014100
 C                  0.81746800   -2.84284600   -0.84168700
 N                 -0.05058400   -2.06830800   -0.19098500
 C                  4.27583100   -0.04677900   -0.46591500
 N                  4.14905000   -0.60910000    0.79603900
 C                  2.98032100    0.21813700   -0.85733000
 C                  2.83628300   -0.67609100    1.13166600
 N                  2.09984200   -0.17722700    0.14032300
 C                 -4.10276600    0.63359500    0.00767100
 N                 -3.89101000    0.00507800   -1.21084200
 C                 -2.85447100    0.68759600    0.58958700
 C                 -2.57670000   -0.30200800   -1.33673100
 N                 -1.91877400    0.10323600   -0.25078100
 C                 -0.07647700    4.16460600   -0.33161100
 N                  0.87970400    4.00015100    0.65971900
 C                 -0.47920700    2.88340600   -0.63798300
 C                  1.03741800    2.67984300    0.91784100
 N                  0.21694600    1.97105000    0.14227600
 Cu                 0.07513600   -0.05424700    0.07831900
 C                 -0.48565500    5.49564100   -0.86133400
 H                 -0.90961800    6.13340200   -0.07058900
 H                  0.36565600    6.03255300   -1.30708700
 H                 -1.24845900    5.37185600   -1.63939800
 C                 -1.53187300   -5.48052200    0.12876100
 H                 -0.92139300   -6.20237400    0.69266400
 H                 -2.44506800   -5.29020800    0.70544700
 H                 -1.82416400   -5.95660500   -0.81974100
 C                 -5.44146200    1.10042100    0.46601600
 H                 -5.86895200    1.84344000   -0.22454300
 H                 -6.15562100    0.26663100    0.54654600
 H                 -5.35830200    1.56842700    1.45427900
 C                  5.58776700    0.17393800   -1.13704600
 H                  6.23402300    0.84525100   -0.55101300
 H                  6.13212900   -0.77144700   -1.28415800
 H                  5.43391100    0.63031900   -2.12228800
 H                 -1.91019600   -2.52388400    0.82462500
 H                  1.72770800   -2.51556200   -1.33246900
 H                  2.63823800    0.67477400   -1.78028200
 H                  2.45570900   -1.06661500    2.06939600
 H                 -2.57707900    1.10934500    1.54883200
 H                 -2.15171300   -0.80802100   -2.19715500
 H                 -1.21867000    2.56992900   -1.36556300
 H                  1.73985000    2.28281400    1.64206900
 H                  1.38539100    4.75285400    1.12155500
 H                  4.92053100   -0.91861400    1.38332500
 H                  0.87469300   -4.91596800   -1.24007300
 H                 -4.60877800   -0.19519200   -1.90405800
 O                 -0.02962900   -0.42913600    2.59512800
 H                 -0.19709200    0.21367800    3.30753100
 H                 -0.38880700   -1.27058500    2.92947100
*
