! UKS B3LYP ZORA-def2-TZVP def2/J RIJCOSX TightSCF ZORA
%tddft
doquad true
nroots 60
maxdim 10
end
* xyz 1 1
 C                  2.60145900   -3.42577500   -0.04678500
 N                  2.68472600   -3.07125700    1.29064400
 C                  1.69340000   -2.53773700   -0.58155100
 C                  1.85135400   -2.01370200    1.51410500
 N                  1.23237700   -1.66438000    0.39152900
 C                 -4.25623000   -0.55441700    0.96826600
 N                 -3.72369400   -1.65456100    1.62151700
 C                 -3.16299500    0.07847300    0.41586100
 C                 -2.37024100   -1.65233700    1.44872800
 N                 -1.99602900   -0.60855200    0.71834900
 C                  2.05214100    3.03032000    2.09548500
 N                  0.75648200    3.26709200    2.52666900
 C                  1.94677200    1.91710300    1.28895800
 C                 -0.06398900    2.32122800    1.98475700
 N                  0.63065800    1.48311500    1.22466800
 C                  0.15558800    1.53920300   -3.81212400
 N                 -0.70837400    0.47391700   -4.01267200
 C                  0.46054900    1.48621500   -2.46929700
 C                 -0.89188100   -0.16838000   -2.82254900
 N                 -0.19262800    0.42503500   -1.86148500
 Cu                -0.08837500   -0.10933200    0.12522100
 C                  0.58032700    2.46390100   -4.90228000
 H                  1.10992800    1.93228500   -5.70873200
 H                 -0.27674800    2.98876300   -5.35327000
 H                  1.26234900    3.22341700   -4.50003500
 C                  3.38372300   -4.54497000   -0.64627600
 H                  3.14696800   -5.51139200   -0.17360500
 H                  3.15037400   -4.63046600   -1.71494200
 H                  4.46931600   -4.38322900   -0.55290100
 C                  3.21404000    3.87651100    2.49312600
 H                  3.09013300    4.92232000    2.17004500
 H                  3.36634100    3.87919800    3.58410500
 H                  4.13063500    3.49094100    2.02932900
 C                 -5.71447100   -0.24241500    0.94721100
 H                 -6.30058400   -1.05042200    0.48136400
 H                 -6.11487200   -0.08027900    1.96052500
 H                 -5.89046900    0.67318000    0.36874200
 H                  1.35060400   -2.46881500   -1.60906400
 H                  1.73644200   -1.53467100    2.48133100
 H                 -3.14563300    0.98151300   -0.18655600
 H                 -1.71273800   -2.41364300    1.85630600
 H                  2.73788400    1.40085900    0.75385700
 H                 -1.13310600    2.27927900    2.16754900
 H                  1.10653700    2.14964700   -1.90295500
 H                 -1.53268900   -1.03619700   -2.70235300
 H                 -1.13422100    0.21573100   -4.89783300
 H                 -4.25395100   -2.34906800    2.13946200
 H                  3.27207300   -3.52090700    1.98666100
 H                  0.46639200    4.02039100    3.14321400
*
